/*********************************************
    * Lab01 - FCR
    * Author: Coso
    * Creation Date: Mar, 2019
    *********************************************/
instance_name = "small_instance_03_FCR";

d = 2;
r = 3;

SCj = [118 140];
Dk = [89 21 24];

Cjk = [[30 80 50]
 [44 60 41]];
Fjk = [[288 587 665]
 [374 332 407]];
